param n := 120;
param c := 3000
param : V : p w :=
   0	 442	 432
   1	 275	 265
   2	 313	 303
   3	 375	 365
   4	 292	 282
   5	 363	 353
   6	 458	 448
   7	 270	 260
   8	 302	 292
   9	 506	 496
  10	 260	 250
  11	 264	 254
  12	 373	 363
  13	 275	 265
  14	 382	 372
  15	 382	 372
  16	 308	 298
  17	 340	 330
  18	 501	 491
  19	 263	 253
  20	 266	 256
  21	 439	 429
  22	 270	 260
  23	 321	 311
  24	 402	 392
  25	 278	 268
  26	 350	 340
  27	 443	 433
  28	 261	 251
  29	 326	 316
  30	 416	 406
  31	 269	 259
  32	 345	 335
  33	 375	 365
  34	 262	 252
  35	 393	 383
  36	 403	 393
  37	 281	 271
  38	 346	 336
  39	 390	 380
  40	 313	 303
  41	 327	 317
  42	 391	 381
  43	 305	 295
  44	 334	 324
  45	 434	 424
  46	 278	 268
  47	 318	 308
  48	 508	 498
  49	 260	 250
  50	 262	 252
  51	 424	 414
  52	 265	 255
  53	 341	 331
  54	 431	 421
  55	 278	 268
  56	 321	 311
  57	 501	 491
  58	 260	 250
  59	 269	 259
  60	 503	 493
  61	 260	 250
  62	 267	 257
  63	 378	 368
  64	 275	 265
  65	 377	 367
  66	 418	 408
  67	 299	 289
  68	 313	 303
  69	 454	 444
  70	 272	 262
  71	 304	 294
  72	 413	 403
  73	 269	 259
  74	 348	 338
  75	 495	 485
  76	 263	 253
  77	 272	 262
  78	 475	 465
  79	 270	 260
  80	 285	 275
  81	 431	 421
  82	 264	 254
  83	 335	 325
  84	 361	 351
  85	 306	 296
  86	 363	 353
  87	 406	 396
  88	 286	 276
  89	 338	 328
  90	 399	 389
  91	 305	 295
  92	 326	 316
  93	 493	 483
  94	 261	 251
  95	 276	 266
  96	 408	 398
  97	 299	 289
  98	 323	 313
  99	 373	 363
 100	 318	 308
 101	 339	 329
 102	 409	 399
 103	 289	 279
 104	 332	 322
 105	 399	 389
 106	 293	 283
 107	 338	 328
 108	 412	 402
 109	 261	 251
 110	 357	 347
 111	 367	 357
 112	 290	 280
 113	 373	 363
 114	 437	 427
 115	 287	 277
 116	 306	 296
 117	 385	 375
 118	 269	 259
 119	 376	 366
;

set E :=
   0	   2
   0	   4
   0	   5
   0	   6
   0	  11
   0	  13
   0	  14
   0	  15
   0	  16
   0	  17
   0	  20
   0	  21
   0	  22
   0	  24
   0	  25
   0	  26
   0	  27
   0	  28
   0	  29
   0	  32
   0	  38
   0	  39
   0	  43
   0	  47
   0	  48
   0	  58
   0	  62
   0	  63
   0	  67
   0	  70
   0	  75
   0	  77
   0	  79
   0	  87
   0	  90
   0	  91
   0	  92
   0	  94
   0	  95
   0	  97
   0	  98
   0	  99
   0	 102
   0	 105
   0	 106
   0	 109
   0	 110
   0	 113
   0	 114
   0	 115
   0	 116
   0	 117
   1	   2
   1	   4
   1	   5
   1	   6
   1	   8
   1	  10
   1	  11
   1	  13
   1	  14
   1	  16
   1	  20
   1	  21
   1	  22
   1	  23
   1	  27
   1	  30
   1	  38
   1	  39
   1	  49
   1	  51
   1	  54
   1	  55
   1	  59
   1	  60
   1	  62
   1	  63
   1	  65
   1	  67
   1	  69
   1	  70
   1	  74
   1	  78
   1	  80
   1	  81
   1	  82
   1	  83
   1	  85
   1	  86
   1	  87
   1	  88
   1	  90
   1	  91
   1	  92
   1	  95
   1	  97
   1	  98
   1	  99
   1	 102
   1	 104
   1	 105
   1	 111
   1	 114
   1	 115
   1	 116
   1	 118
   2	   4
   2	   5
   2	   9
   2	  11
   2	  12
   2	  15
   2	  16
   2	  19
   2	  20
   2	  23
   2	  24
   2	  25
   2	  32
   2	  40
   2	  43
   2	  46
   2	  48
   2	  51
   2	  52
   2	  58
   2	  65
   2	  68
   2	  70
   2	  85
   2	  89
   2	  90
   2	  93
   2	  94
   2	  95
   2	  98
   2	 100
   2	 102
   2	 103
   2	 109
   2	 118
   3	   4
   3	   7
   3	   9
   3	  11
   3	  12
   3	  15
   3	  18
   3	  22
   3	  24
   3	  26
   3	  27
   3	  29
   3	  30
   3	  32
   3	  34
   3	  37
   3	  38
   3	  41
   3	  45
   3	  47
   3	  52
   3	  61
   3	  67
   3	  69
   3	  72
   3	  73
   3	  76
   3	  78
   3	  82
   3	  83
   3	  84
   3	  85
   3	  90
   3	  95
   3	  97
   3	  98
   3	  99
   3	 102
   3	 103
   3	 104
   3	 105
   3	 109
   3	 111
   3	 113
   3	 116
   3	 117
   4	   5
   4	   6
   4	  10
   4	  13
   4	  14
   4	  17
   4	  19
   4	  20
   4	  22
   4	  23
   4	  25
   4	  27
   4	  36
   4	  39
   4	  41
   4	  43
   4	  47
   4	  48
   4	  58
   4	  60
   4	  62
   4	  63
   4	  66
   4	  70
   4	  72
   4	  73
   4	  77
   4	  78
   4	  81
   4	  84
   4	  89
   4	  90
   4	  92
   4	  94
   4	  95
   4	  98
   4	 100
   4	 101
   4	 103
   4	 104
   4	 106
   4	 108
   4	 110
   4	 112
   4	 119
   5	   6
   5	   7
   5	   9
   5	  13
   5	  18
   5	  21
   5	  24
   5	  26
   5	  28
   5	  30
   5	  31
   5	  32
   5	  33
   5	  34
   5	  36
   5	  42
   5	  43
   5	  44
   5	  46
   5	  53
   5	  54
   5	  56
   5	  66
   5	  67
   5	  68
   5	  71
   5	  72
   5	  75
   5	  76
   5	  77
   5	  79
   5	  80
   5	  81
   5	  83
   5	  84
   5	  85
   5	  86
   5	  89
   5	  91
   5	  96
   5	  99
   5	 100
   5	 101
   5	 102
   5	 108
   5	 110
   5	 113
   5	 115
   5	 117
   5	 118
   6	   7
   6	   8
   6	   9
   6	  10
   6	  12
   6	  13
   6	  15
   6	  23
   6	  26
   6	  28
   6	  30
   6	  35
   6	  38
   6	  39
   6	  41
   6	  43
   6	  50
   6	  51
   6	  53
   6	  54
   6	  56
   6	  57
   6	  58
   6	  59
   6	  62
   6	  63
   6	  66
   6	  70
   6	  71
   6	  77
   6	  81
   6	  83
   6	  84
   6	  87
   6	  88
   6	  91
   6	  93
   6	  95
   6	  97
   6	  98
   6	 104
   6	 105
   6	 107
   6	 108
   6	 111
   6	 112
   6	 113
   6	 115
   6	 117
   6	 119
   7	  11
   7	  12
   7	  13
   7	  15
   7	  16
   7	  17
   7	  20
   7	  21
   7	  22
   7	  27
   7	  28
   7	  30
   7	  33
   7	  34
   7	  35
   7	  39
   7	  42
   7	  45
   7	  49
   7	  50
   7	  52
   7	  57
   7	  58
   7	  61
   7	  66
   7	  69
   7	  70
   7	  72
   7	  73
   7	  74
   7	  76
   7	  78
   7	  80
   7	  82
   7	  83
   7	  84
   7	  85
   7	  86
   7	  87
   7	  89
   7	  91
   7	  95
   7	  98
   7	  99
   7	 100
   7	 101
   7	 102
   7	 104
   7	 107
   7	 109
   7	 110
   7	 115
   7	 117
   7	 119
   8	  12
   8	  15
   8	  24
   8	  27
   8	  30
   8	  35
   8	  36
   8	  37
   8	  38
   8	  41
   8	  42
   8	  44
   8	  45
   8	  47
   8	  50
   8	  52
   8	  54
   8	  59
   8	  62
   8	  63
   8	  64
   8	  65
   8	  66
   8	  69
   8	  70
   8	  73
   8	  77
   8	  79
   8	  80
   8	  82
   8	  83
   8	  84
   8	  88
   8	  89
   8	  90
   8	  91
   8	  92
   8	  94
   8	  98
   8	 101
   8	 105
   8	 108
   8	 111
   8	 113
   8	 114
   8	 118
   8	 119
   9	  10
   9	  12
   9	  13
   9	  16
   9	  17
   9	  18
   9	  19
   9	  22
   9	  23
   9	  24
   9	  25
   9	  28
   9	  29
   9	  31
   9	  37
   9	  40
   9	  41
   9	  43
   9	  44
   9	  45
   9	  46
   9	  49
   9	  54
   9	  55
   9	  59
   9	  63
   9	  68
   9	  69
   9	  73
   9	  76
   9	  77
   9	  80
   9	  82
   9	  83
   9	  84
   9	  85
   9	  87
   9	  88
   9	  92
   9	  93
   9	  94
   9	  96
   9	  98
   9	  99
   9	 111
   9	 113
   9	 114
   9	 116
  10	  18
  10	  21
  10	  22
  10	  25
  10	  26
  10	  27
  10	  32
  10	  34
  10	  37
  10	  40
  10	  44
  10	  47
  10	  49
  10	  52
  10	  53
  10	  54
  10	  56
  10	  58
  10	  61
  10	  63
  10	  64
  10	  66
  10	  73
  10	  75
  10	  76
  10	  77
  10	  80
  10	  81
  10	  86
  10	  90
  10	  95
  10	  96
  10	 101
  10	 104
  10	 112
  10	 113
  10	 116
  10	 118
  11	  20
  11	  21
  11	  22
  11	  23
  11	  24
  11	  28
  11	  29
  11	  31
  11	  32
  11	  36
  11	  37
  11	  39
  11	  42
  11	  46
  11	  48
  11	  50
  11	  53
  11	  59
  11	  63
  11	  64
  11	  65
  11	  67
  11	  75
  11	  76
  11	  79
  11	  80
  11	  81
  11	  84
  11	  86
  11	  88
  11	  94
  11	  98
  11	 104
  11	 105
  11	 106
  11	 111
  11	 118
  12	  14
  12	  16
  12	  19
  12	  20
  12	  24
  12	  27
  12	  29
  12	  31
  12	  32
  12	  34
  12	  35
  12	  36
  12	  37
  12	  39
  12	  41
  12	  44
  12	  45
  12	  48
  12	  49
  12	  50
  12	  54
  12	  60
  12	  61
  12	  72
  12	  74
  12	  77
  12	  81
  12	  85
  12	  90
  12	  93
  12	  98
  12	 105
  12	 115
  12	 116
  12	 117
  13	  17
  13	  18
  13	  25
  13	  26
  13	  27
  13	  30
  13	  33
  13	  34
  13	  35
  13	  40
  13	  41
  13	  42
  13	  45
  13	  46
  13	  48
  13	  50
  13	  52
  13	  53
  13	  54
  13	  56
  13	  60
  13	  63
  13	  64
  13	  65
  13	  67
  13	  69
  13	  72
  13	  77
  13	  79
  13	  83
  13	  92
  13	  94
  13	  95
  13	  96
  13	  97
  13	  98
  13	 100
  13	 102
  13	 104
  13	 107
  13	 109
  13	 112
  13	 114
  13	 118
  14	  17
  14	  19
  14	  23
  14	  24
  14	  30
  14	  31
  14	  35
  14	  41
  14	  42
  14	  43
  14	  48
  14	  59
  14	  60
  14	  63
  14	  67
  14	  71
  14	  72
  14	  74
  14	  76
  14	  79
  14	  80
  14	  82
  14	  84
  14	  85
  14	  92
  14	  94
  14	  96
  14	 100
  14	 103
  14	 106
  14	 107
  14	 109
  14	 110
  14	 112
  14	 116
  14	 118
  15	  16
  15	  17
  15	  21
  15	  22
  15	  25
  15	  27
  15	  30
  15	  32
  15	  33
  15	  34
  15	  36
  15	  38
  15	  39
  15	  41
  15	  43
  15	  45
  15	  49
  15	  54
  15	  55
  15	  61
  15	  62
  15	  63
  15	  64
  15	  68
  15	  69
  15	  73
  15	  74
  15	  81
  15	  82
  15	  83
  15	  87
  15	  88
  15	  90
  15	  94
  15	  95
  15	  98
  15	 100
  15	 101
  15	 107
  15	 109
  15	 111
  15	 112
  15	 115
  15	 116
  16	  17
  16	  20
  16	  22
  16	  23
  16	  26
  16	  29
  16	  30
  16	  31
  16	  32
  16	  39
  16	  40
  16	  45
  16	  46
  16	  47
  16	  53
  16	  54
  16	  56
  16	  65
  16	  66
  16	  73
  16	  76
  16	  77
  16	  81
  16	  82
  16	  83
  16	  85
  16	  88
  16	  89
  16	  91
  16	  92
  16	  93
  16	  94
  16	  97
  16	  98
  16	 100
  16	 101
  16	 102
  16	 104
  16	 106
  16	 108
  16	 109
  16	 111
  16	 114
  16	 117
  16	 118
  16	 119
  17	  18
  17	  20
  17	  21
  17	  22
  17	  28
  17	  31
  17	  36
  17	  39
  17	  41
  17	  44
  17	  45
  17	  47
  17	  48
  17	  49
  17	  51
  17	  54
  17	  56
  17	  57
  17	  62
  17	  63
  17	  66
  17	  69
  17	  71
  17	  77
  17	  78
  17	  79
  17	  83
  17	  86
  17	  88
  17	  89
  17	  92
  17	  95
  17	  97
  17	  98
  17	  99
  17	 100
  17	 102
  17	 106
  17	 109
  17	 110
  17	 112
  17	 113
  17	 116
  17	 117
  17	 118
  18	  19
  18	  21
  18	  23
  18	  24
  18	  26
  18	  32
  18	  39
  18	  43
  18	  44
  18	  45
  18	  46
  18	  47
  18	  48
  18	  49
  18	  55
  18	  64
  18	  68
  18	  69
  18	  72
  18	  83
  18	  85
  18	  88
  18	  89
  18	  90
  18	  91
  18	  92
  18	  94
  18	 100
  18	 101
  18	 102
  18	 103
  18	 105
  18	 116
  19	  20
  19	  21
  19	  27
  19	  29
  19	  35
  19	  44
  19	  45
  19	  50
  19	  51
  19	  53
  19	  55
  19	  56
  19	  57
  19	  62
  19	  64
  19	  68
  19	  69
  19	  74
  19	  76
  19	  79
  19	  83
  19	  85
  19	  92
  19	  93
  19	  95
  19	 100
  19	 101
  19	 102
  19	 103
  19	 107
  19	 109
  19	 111
  19	 113
  19	 117
  20	  21
  20	  23
  20	  25
  20	  27
  20	  30
  20	  38
  20	  40
  20	  41
  20	  43
  20	  49
  20	  51
  20	  52
  20	  54
  20	  56
  20	  57
  20	  60
  20	  75
  20	  76
  20	  77
  20	  78
  20	  79
  20	  80
  20	  82
  20	  84
  20	  87
  20	  88
  20	  90
  20	  93
  20	  94
  20	  97
  20	  99
  20	 100
  20	 102
  20	 104
  20	 105
  20	 106
  20	 107
  20	 109
  20	 112
  20	 114
  20	 115
  20	 117
  20	 118
  21	  24
  21	  27
  21	  28
  21	  30
  21	  32
  21	  33
  21	  36
  21	  38
  21	  45
  21	  50
  21	  52
  21	  54
  21	  56
  21	  58
  21	  59
  21	  60
  21	  63
  21	  64
  21	  66
  21	  68
  21	  71
  21	  72
  21	  75
  21	  76
  21	  78
  21	  80
  21	  84
  21	  85
  21	  86
  21	  89
  21	  93
  21	 100
  21	 105
  21	 107
  21	 109
  21	 111
  21	 112
  21	 117
  21	 118
  22	  23
  22	  25
  22	  27
  22	  28
  22	  33
  22	  34
  22	  35
  22	  40
  22	  45
  22	  46
  22	  48
  22	  52
  22	  53
  22	  54
  22	  56
  22	  58
  22	  64
  22	  71
  22	  72
  22	  74
  22	  77
  22	  79
  22	  83
  22	  84
  22	  85
  22	  87
  22	  89
  22	  90
  22	  91
  22	  92
  22	  96
  22	  99
  22	 101
  22	 108
  22	 109
  22	 110
  22	 115
  22	 116
  22	 118
  22	 119
  23	  24
  23	  27
  23	  31
  23	  33
  23	  38
  23	  39
  23	  40
  23	  45
  23	  48
  23	  55
  23	  56
  23	  63
  23	  64
  23	  68
  23	  69
  23	  71
  23	  74
  23	  79
  23	  80
  23	  81
  23	  88
  23	  91
  23	  95
  23	  96
  23	  99
  23	 100
  23	 101
  23	 104
  23	 106
  23	 110
  23	 112
  23	 118
  24	  32
  24	  33
  24	  34
  24	  36
  24	  39
  24	  45
  24	  46
  24	  47
  24	  48
  24	  49
  24	  50
  24	  52
  24	  53
  24	  54
  24	  55
  24	  57
  24	  66
  24	  67
  24	  69
  24	  71
  24	  74
  24	  77
  24	  83
  24	  84
  24	  85
  24	  90
  24	  95
  24	 101
  24	 103
  24	 104
  24	 108
  24	 111
  24	 112
  24	 113
  24	 114
  24	 116
  24	 117
  24	 118
  25	  26
  25	  27
  25	  28
  25	  30
  25	  33
  25	  35
  25	  36
  25	  37
  25	  39
  25	  40
  25	  42
  25	  48
  25	  49
  25	  52
  25	  59
  25	  65
  25	  68
  25	  71
  25	  72
  25	  73
  25	  74
  25	  77
  25	  84
  25	  85
  25	  87
  25	  89
  25	  93
  25	  97
  25	  99
  25	 100
  25	 104
  25	 106
  25	 108
  25	 112
  25	 115
  25	 116
  25	 117
  25	 119
  26	  27
  26	  29
  26	  32
  26	  35
  26	  38
  26	  40
  26	  41
  26	  43
  26	  47
  26	  48
  26	  49
  26	  51
  26	  52
  26	  53
  26	  56
  26	  60
  26	  63
  26	  64
  26	  67
  26	  82
  26	  88
  26	  89
  26	  91
  26	  92
  26	  94
  26	 102
  26	 103
  26	 105
  26	 109
  26	 110
  26	 111
  26	 113
  27	  29
  27	  31
  27	  33
  27	  36
  27	  37
  27	  38
  27	  40
  27	  41
  27	  44
  27	  45
  27	  49
  27	  53
  27	  54
  27	  55
  27	  58
  27	  62
  27	  66
  27	  67
  27	  68
  27	  70
  27	  75
  27	  78
  27	  79
  27	  81
  27	  82
  27	  85
  27	  87
  27	  88
  27	  91
  27	  94
  27	  95
  27	  97
  27	 106
  27	 108
  27	 110
  27	 111
  27	 112
  27	 113
  27	 114
  27	 115
  27	 119
  28	  29
  28	  32
  28	  34
  28	  35
  28	  37
  28	  41
  28	  50
  28	  53
  28	  56
  28	  61
  28	  66
  28	  68
  28	  69
  28	  70
  28	  71
  28	  73
  28	  74
  28	  76
  28	  83
  28	  85
  28	  89
  28	  90
  28	  92
  28	  93
  28	  97
  28	 104
  28	 106
  28	 107
  28	 108
  28	 113
  28	 116
  28	 117
  28	 118
  28	 119
  29	  30
  29	  33
  29	  34
  29	  35
  29	  37
  29	  38
  29	  41
  29	  47
  29	  50
  29	  52
  29	  54
  29	  56
  29	  57
  29	  58
  29	  59
  29	  65
  29	  66
  29	  67
  29	  72
  29	  75
  29	  79
  29	  82
  29	  83
  29	  84
  29	  85
  29	  92
  29	  97
  29	  99
  29	 100
  29	 101
  29	 102
  29	 104
  29	 105
  29	 106
  29	 108
  29	 109
  29	 113
  29	 115
  29	 118
  29	 119
  30	  31
  30	  34
  30	  37
  30	  39
  30	  40
  30	  44
  30	  45
  30	  47
  30	  48
  30	  49
  30	  53
  30	  54
  30	  55
  30	  56
  30	  58
  30	  65
  30	  66
  30	  67
  30	  73
  30	  77
  30	  80
  30	  86
  30	  88
  30	  98
  30	 100
  30	 106
  30	 108
  30	 110
  30	 112
  30	 113
  30	 114
  30	 118
  30	 119
  31	  32
  31	  36
  31	  37
  31	  45
  31	  46
  31	  51
  31	  52
  31	  54
  31	  55
  31	  56
  31	  60
  31	  66
  31	  69
  31	  73
  31	  75
  31	  77
  31	  78
  31	  83
  31	  84
  31	  87
  31	  88
  31	  92
  31	  97
  31	 100
  31	 101
  31	 103
  31	 104
  31	 105
  31	 108
  31	 111
  31	 112
  31	 113
  31	 115
  31	 117
  32	  42
  32	  43
  32	  44
  32	  52
  32	  56
  32	  58
  32	  62
  32	  63
  32	  65
  32	  67
  32	  69
  32	  77
  32	  78
  32	  79
  32	  80
  32	  82
  32	  83
  32	  86
  32	  89
  32	  91
  32	  95
  32	  97
  32	 100
  32	 102
  32	 104
  32	 105
  32	 108
  32	 110
  32	 112
  32	 116
  32	 117
  32	 118
  32	 119
  33	  35
  33	  36
  33	  41
  33	  45
  33	  50
  33	  56
  33	  57
  33	  58
  33	  61
  33	  62
  33	  63
  33	  70
  33	  72
  33	  74
  33	  77
  33	  78
  33	  80
  33	  82
  33	  84
  33	  87
  33	  90
  33	  94
  33	  95
  33	  96
  33	  97
  33	  99
  33	 100
  33	 101
  33	 104
  33	 106
  33	 108
  33	 114
  33	 119
  34	  35
  34	  41
  34	  42
  34	  43
  34	  48
  34	  49
  34	  50
  34	  53
  34	  54
  34	  55
  34	  56
  34	  60
  34	  64
  34	  66
  34	  71
  34	  72
  34	  73
  34	  76
  34	  77
  34	  78
  34	  81
  34	  82
  34	  87
  34	 103
  34	 105
  34	 106
  34	 109
  34	 112
  34	 113
  34	 118
  35	  38
  35	  41
  35	  43
  35	  44
  35	  45
  35	  47
  35	  50
  35	  56
  35	  59
  35	  60
  35	  62
  35	  64
  35	  67
  35	  71
  35	  76
  35	  77
  35	  78
  35	  82
  35	  85
  35	  86
  35	  87
  35	  88
  35	  92
  35	  94
  35	  97
  35	  98
  35	 101
  35	 102
  35	 104
  35	 105
  35	 110
  35	 114
  35	 115
  35	 116
  35	 117
  35	 118
  36	  37
  36	  39
  36	  40
  36	  41
  36	  42
  36	  46
  36	  48
  36	  50
  36	  54
  36	  56
  36	  59
  36	  63
  36	  64
  36	  70
  36	  73
  36	  74
  36	  79
  36	  80
  36	  82
  36	  84
  36	  86
  36	  87
  36	  88
  36	  89
  36	  91
  36	  93
  36	  95
  36	  99
  36	 100
  36	 101
  36	 104
  36	 105
  36	 106
  36	 108
  36	 111
  37	  38
  37	  39
  37	  41
  37	  46
  37	  49
  37	  52
  37	  53
  37	  55
  37	  58
  37	  59
  37	  61
  37	  62
  37	  65
  37	  68
  37	  69
  37	  71
  37	  72
  37	  79
  37	  82
  37	  86
  37	  90
  37	  99
  37	 100
  37	 103
  37	 104
  37	 105
  37	 106
  37	 107
  37	 108
  37	 109
  37	 119
  38	  40
  38	  42
  38	  43
  38	  44
  38	  45
  38	  46
  38	  50
  38	  54
  38	  55
  38	  56
  38	  57
  38	  58
  38	  62
  38	  65
  38	  71
  38	  75
  38	  76
  38	  77
  38	  78
  38	  79
  38	  82
  38	  83
  38	  85
  38	  87
  38	  88
  38	  89
  38	  91
  38	  95
  38	  97
  38	 101
  38	 102
  38	 104
  38	 105
  38	 106
  38	 107
  38	 110
  38	 111
  38	 112
  38	 116
  39	  42
  39	  43
  39	  44
  39	  47
  39	  48
  39	  50
  39	  53
  39	  54
  39	  56
  39	  58
  39	  59
  39	  60
  39	  63
  39	  66
  39	  69
  39	  73
  39	  74
  39	  81
  39	  86
  39	  88
  39	  92
  39	 102
  39	 103
  39	 104
  39	 105
  39	 107
  39	 109
  39	 111
  39	 112
  39	 114
  39	 117
  39	 119
  40	  42
  40	  45
  40	  50
  40	  51
  40	  53
  40	  56
  40	  57
  40	  62
  40	  65
  40	  68
  40	  70
  40	  71
  40	  75
  40	  77
  40	  78
  40	  80
  40	  82
  40	  83
  40	  88
  40	  91
  40	  92
  40	  93
  40	  95
  40	  98
  40	 100
  40	 101
  40	 102
  40	 105
  40	 106
  40	 108
  40	 111
  40	 113
  40	 117
  40	 118
  40	 119
  41	  42
  41	  48
  41	  54
  41	  63
  41	  65
  41	  67
  41	  70
  41	  78
  41	  81
  41	  83
  41	  85
  41	  91
  41	  93
  41	  96
  41	  97
  41	 100
  41	 101
  41	 106
  41	 111
  41	 113
  41	 116
  41	 118
  42	  43
  42	  46
  42	  47
  42	  49
  42	  52
  42	  53
  42	  54
  42	  55
  42	  56
  42	  57
  42	  62
  42	  63
  42	  64
  42	  65
  42	  66
  42	  67
  42	  70
  42	  71
  42	  72
  42	  73
  42	  75
  42	  81
  42	  88
  42	  89
  42	  91
  42	  93
  42	  96
  42	  98
  42	  99
  42	 100
  42	 103
  42	 106
  42	 107
  42	 108
  42	 109
  42	 110
  42	 115
  42	 116
  42	 118
  43	  44
  43	  48
  43	  53
  43	  55
  43	  57
  43	  58
  43	  60
  43	  64
  43	  65
  43	  68
  43	  69
  43	  73
  43	  77
  43	  78
  43	  79
  43	  81
  43	  84
  43	  85
  43	  86
  43	  87
  43	  88
  43	  90
  43	  91
  43	  96
  43	  99
  43	 100
  43	 101
  43	 104
  43	 111
  43	 112
  43	 115
  44	  51
  44	  55
  44	  58
  44	  59
  44	  61
  44	  62
  44	  74
  44	  77
  44	  78
  44	  79
  44	  82
  44	  83
  44	  84
  44	  87
  44	  97
  44	  99
  44	 101
  44	 102
  44	 103
  44	 104
  44	 106
  44	 113
  44	 114
  44	 117
  44	 119
  45	  46
  45	  48
  45	  49
  45	  54
  45	  55
  45	  61
  45	  62
  45	  66
  45	  71
  45	  72
  45	  77
  45	  78
  45	  80
  45	  84
  45	  85
  45	  86
  45	  96
  45	 102
  45	 106
  45	 107
  45	 108
  45	 114
  45	 115
  45	 117
  46	  53
  46	  54
  46	  55
  46	  59
  46	  61
  46	  62
  46	  71
  46	  73
  46	  77
  46	  80
  46	  83
  46	  84
  46	  85
  46	  86
  46	  87
  46	  88
  46	  89
  46	  94
  46	  96
  46	  97
  46	  98
  46	  99
  46	 101
  46	 102
  46	 105
  46	 108
  46	 110
  46	 112
  46	 114
  46	 115
  46	 117
  47	  48
  47	  51
  47	  53
  47	  56
  47	  59
  47	  63
  47	  64
  47	  70
  47	  72
  47	  76
  47	  78
  47	  79
  47	  85
  47	  86
  47	  87
  47	  88
  47	  89
  47	  93
  47	  94
  47	  98
  47	 100
  47	 104
  47	 105
  47	 106
  47	 108
  47	 110
  47	 111
  47	 114
  47	 117
  47	 118
  48	  51
  48	  57
  48	  62
  48	  63
  48	  64
  48	  66
  48	  67
  48	  71
  48	  73
  48	  74
  48	  76
  48	  77
  48	  79
  48	  83
  48	  86
  48	  91
  48	  95
  48	  98
  48	 102
  48	 104
  48	 105
  48	 106
  48	 111
  48	 113
  48	 115
  48	 117
  49	  50
  49	  51
  49	  53
  49	  57
  49	  62
  49	  63
  49	  69
  49	  71
  49	  76
  49	  84
  49	  85
  49	  86
  49	  87
  49	  88
  49	  89
  49	  93
  49	  95
  49	  99
  49	 101
  49	 103
  49	 104
  49	 112
  49	 113
  49	 114
  49	 117
  49	 118
  50	  53
  50	  54
  50	  57
  50	  60
  50	  63
  50	  65
  50	  66
  50	  67
  50	  68
  50	  69
  50	  70
  50	  71
  50	  73
  50	  74
  50	  75
  50	  81
  50	  85
  50	  87
  50	  90
  50	  96
  50	 100
  50	 101
  50	 103
  50	 107
  50	 108
  50	 110
  50	 111
  50	 112
  50	 113
  51	  52
  51	  54
  51	  57
  51	  61
  51	  62
  51	  63
  51	  65
  51	  66
  51	  67
  51	  69
  51	  70
  51	  75
  51	  79
  51	  80
  51	  82
  51	  83
  51	  84
  51	  87
  51	  89
  51	  91
  51	  96
  51	  97
  51	  98
  51	 100
  51	 103
  51	 104
  51	 111
  51	 113
  51	 117
  51	 118
  52	  53
  52	  54
  52	  60
  52	  63
  52	  64
  52	  66
  52	  68
  52	  69
  52	  70
  52	  72
  52	  79
  52	  80
  52	  83
  52	  85
  52	  86
  52	  88
  52	  96
  52	  99
  52	 101
  52	 102
  52	 104
  52	 105
  52	 107
  52	 108
  52	 112
  52	 113
  52	 115
  52	 117
  52	 118
  52	 119
  53	  54
  53	  55
  53	  56
  53	  57
  53	  58
  53	  60
  53	  63
  53	  64
  53	  66
  53	  67
  53	  69
  53	  73
  53	  75
  53	  76
  53	  78
  53	  83
  53	  84
  53	  85
  53	  90
  53	  92
  53	  97
  53	 100
  53	 101
  53	 103
  53	 105
  53	 106
  53	 109
  53	 113
  53	 115
  53	 116
  53	 118
  54	  56
  54	  64
  54	  68
  54	  69
  54	  73
  54	  74
  54	  78
  54	  81
  54	  82
  54	  83
  54	  85
  54	  86
  54	  88
  54	  92
  54	  94
  54	  95
  54	  96
  54	  99
  54	 100
  54	 101
  54	 104
  54	 105
  54	 106
  54	 108
  54	 109
  54	 111
  54	 118
  55	  57
  55	  66
  55	  67
  55	  68
  55	  69
  55	  70
  55	  72
  55	  78
  55	  80
  55	  91
  55	  93
  55	  94
  55	  95
  55	  97
  55	  99
  55	 104
  55	 109
  55	 110
  55	 113
  55	 115
  56	  57
  56	  60
  56	  62
  56	  65
  56	  67
  56	  68
  56	  70
  56	  75
  56	  77
  56	  78
  56	  79
  56	  80
  56	  84
  56	  86
  56	  88
  56	  89
  56	  90
  56	  94
  56	  98
  56	 105
  56	 107
  56	 110
  56	 112
  56	 114
  56	 116
  57	  58
  57	  61
  57	  65
  57	  66
  57	  68
  57	  69
  57	  70
  57	  78
  57	  82
  57	  84
  57	  85
  57	  87
  57	  88
  57	  93
  57	  94
  57	  96
  57	 101
  57	 103
  57	 109
  57	 111
  57	 115
  57	 116
  57	 119
  58	  64
  58	  65
  58	  67
  58	  70
  58	  72
  58	  76
  58	  79
  58	  81
  58	  86
  58	  94
  58	  95
  58	  96
  58	  97
  58	  99
  58	 100
  58	 101
  58	 102
  58	 103
  58	 104
  58	 107
  58	 113
  58	 115
  58	 116
  58	 118
  58	 119
  59	  60
  59	  62
  59	  63
  59	  64
  59	  65
  59	  67
  59	  69
  59	  71
  59	  74
  59	  76
  59	  79
  59	  81
  59	  85
  59	  89
  59	  90
  59	  92
  59	  94
  59	  96
  59	 103
  59	 105
  59	 107
  59	 108
  59	 109
  59	 111
  59	 113
  59	 115
  59	 119
  60	  62
  60	  63
  60	  65
  60	  66
  60	  69
  60	  73
  60	  76
  60	  77
  60	  80
  60	  82
  60	  85
  60	  86
  60	  87
  60	  88
  60	  93
  60	  98
  60	  99
  60	 100
  60	 102
  60	 104
  60	 105
  60	 107
  60	 111
  60	 114
  60	 116
  60	 117
  61	  62
  61	  63
  61	  68
  61	  73
  61	  74
  61	  77
  61	  80
  61	  83
  61	  85
  61	  89
  61	  92
  61	  95
  61	 102
  61	 107
  61	 110
  61	 114
  61	 115
  61	 116
  61	 118
  62	  63
  62	  64
  62	  65
  62	  69
  62	  71
  62	  78
  62	  79
  62	  81
  62	  85
  62	  88
  62	  89
  62	  93
  62	  94
  62	  95
  62	  96
  62	  99
  62	 101
  62	 102
  62	 103
  62	 104
  62	 105
  62	 108
  62	 113
  62	 114
  62	 116
  62	 117
  62	 118
  63	  66
  63	  67
  63	  69
  63	  71
  63	  72
  63	  73
  63	  75
  63	  80
  63	  81
  63	  83
  63	  91
  63	  96
  63	  99
  63	 100
  63	 102
  63	 106
  63	 108
  63	 110
  63	 112
  63	 116
  63	 117
  63	 118
  63	 119
  64	  65
  64	  66
  64	  69
  64	  72
  64	  73
  64	  74
  64	  77
  64	  78
  64	  81
  64	  84
  64	  90
  64	  92
  64	  96
  64	  99
  64	 102
  64	 106
  64	 107
  64	 110
  64	 111
  64	 116
  64	 117
  64	 119
  65	  66
  65	  67
  65	  68
  65	  70
  65	  76
  65	  77
  65	  87
  65	  92
  65	  94
  65	  97
  65	 101
  65	 102
  65	 105
  65	 106
  65	 108
  65	 116
  66	  70
  66	  71
  66	  72
  66	  74
  66	  77
  66	  81
  66	  82
  66	  83
  66	  85
  66	  87
  66	  90
  66	  92
  66	  93
  66	  97
  66	 103
  66	 104
  66	 110
  66	 113
  66	 115
  67	  68
  67	  69
  67	  70
  67	  74
  67	  79
  67	  83
  67	  85
  67	  96
  67	  98
  67	 100
  67	 101
  67	 103
  67	 105
  67	 106
  67	 108
  67	 109
  67	 111
  67	 112
  67	 114
  67	 118
  68	  72
  68	  77
  68	  80
  68	  82
  68	  83
  68	  85
  68	  94
  68	  95
  68	  99
  68	 101
  68	 102
  68	 106
  68	 110
  68	 111
  68	 115
  68	 117
  69	  70
  69	  72
  69	  75
  69	  76
  69	  78
  69	  80
  69	  81
  69	  84
  69	  88
  69	  90
  69	  91
  69	  97
  69	 100
  69	 102
  69	 109
  69	 111
  69	 117
  69	 119
  70	  71
  70	  74
  70	  75
  70	  78
  70	  79
  70	  80
  70	  82
  70	  83
  70	  84
  70	  90
  70	  92
  70	  94
  70	  97
  70	 100
  70	 104
  70	 105
  70	 106
  70	 109
  70	 112
  70	 115
  70	 116
  70	 118
  70	 119
  71	  78
  71	  80
  71	  81
  71	  82
  71	  87
  71	  88
  71	  93
  71	 101
  71	 103
  71	 105
  71	 107
  71	 112
  71	 113
  71	 114
  71	 115
  71	 118
  72	  73
  72	  78
  72	  80
  72	  81
  72	  84
  72	  85
  72	  86
  72	  88
  72	  89
  72	  90
  72	  95
  72	  97
  72	  98
  72	  99
  72	 101
  72	 102
  72	 105
  72	 106
  72	 107
  72	 108
  72	 114
  72	 117
  73	  78
  73	  82
  73	  91
  73	  93
  73	  94
  73	  96
  73	  97
  73	  98
  73	 100
  73	 101
  73	 102
  73	 106
  73	 108
  73	 109
  73	 114
  73	 115
  73	 118
  73	 119
  74	  75
  74	  78
  74	  80
  74	  81
  74	  82
  74	  83
  74	  87
  74	  88
  74	  91
  74	  92
  74	  93
  74	  94
  74	  96
  74	  98
  74	 102
  74	 106
  74	 109
  74	 110
  74	 113
  74	 114
  74	 118
  75	  78
  75	  79
  75	  84
  75	  86
  75	  87
  75	  89
  75	  90
  75	  94
  75	  95
  75	  96
  75	  97
  75	  99
  75	 105
  75	 106
  75	 109
  75	 112
  75	 115
  75	 116
  75	 117
  75	 119
  76	  77
  76	  78
  76	  80
  76	  81
  76	  82
  76	  86
  76	  89
  76	  95
  76	 101
  76	 102
  76	 104
  76	 106
  76	 115
  76	 116
  76	 118
  77	  78
  77	  80
  77	  82
  77	  83
  77	  85
  77	  86
  77	  89
  77	  90
  77	  92
  77	  93
  77	  94
  77	  95
  77	  96
  77	  98
  77	  99
  77	 101
  77	 102
  77	 103
  77	 104
  77	 105
  77	 110
  77	 115
  77	 116
  77	 117
  77	 119
  78	  81
  78	  91
  78	  92
  78	  94
  78	  96
  78	  97
  78	 100
  78	 102
  78	 103
  78	 104
  78	 107
  78	 108
  78	 110
  78	 111
  79	  81
  79	  82
  79	  85
  79	  87
  79	  89
  79	  99
  79	 100
  79	 101
  79	 105
  79	 110
  79	 114
  79	 116
  79	 118
  80	  82
  80	  85
  80	  87
  80	  91
  80	  92
  80	  93
  80	  97
  80	  98
  80	  99
  80	 101
  80	 106
  80	 113
  80	 114
  80	 115
  80	 116
  80	 118
  80	 119
  81	  82
  81	  84
  81	  89
  81	  91
  81	  92
  81	  94
  81	  96
  81	  97
  81	  99
  81	 102
  81	 103
  81	 104
  81	 105
  81	 106
  81	 107
  81	 109
  81	 113
  81	 118
  81	 119
  82	  84
  82	  85
  82	  86
  82	  91
  82	  93
  82	 100
  82	 105
  82	 106
  82	 107
  82	 109
  82	 112
  82	 113
  82	 114
  82	 118
  82	 119
  83	  84
  83	  88
  83	  96
  83	  98
  83	  99
  83	 106
  83	 108
  83	 109
  83	 112
  83	 114
  83	 115
  83	 118
  84	  86
  84	  88
  84	  92
  84	  93
  84	  94
  84	  95
  84	  96
  84	  98
  84	 103
  84	 104
  84	 105
  84	 106
  84	 108
  84	 114
  85	  86
  85	  88
  85	  89
  85	  90
  85	  91
  85	  93
  85	  96
  85	  97
  85	  99
  85	 101
  85	 102
  85	 108
  85	 111
  85	 113
  85	 115
  86	  87
  86	  88
  86	  91
  86	  92
  86	  94
  86	 100
  86	 101
  86	 102
  86	 103
  86	 106
  86	 109
  86	 112
  86	 113
  86	 115
  86	 116
  86	 119
  87	  88
  87	  97
  87	  99
  87	 100
  87	 102
  87	 106
  87	 107
  87	 108
  87	 109
  87	 111
  87	 114
  87	 115
  87	 116
  88	  89
  88	  92
  88	  95
  88	  97
  88	  98
  88	 101
  88	 107
  88	 108
  88	 112
  88	 113
  88	 114
  88	 115
  88	 116
  88	 117
  88	 119
  89	  91
  89	  95
  89	  96
  89	  97
  89	 103
  89	 104
  89	 105
  89	 106
  89	 108
  89	 111
  89	 114
  89	 115
  89	 117
  90	  91
  90	  92
  90	  93
  90	  97
  90	  98
  90	  99
  90	 100
  90	 101
  90	 104
  90	 106
  90	 107
  90	 108
  90	 109
  90	 110
  90	 111
  90	 114
  90	 115
  90	 116
  90	 117
  90	 118
  91	  93
  91	  95
  91	  96
  91	  99
  91	 104
  91	 107
  91	 108
  91	 112
  91	 113
  91	 117
  92	  97
  92	 101
  92	 105
  92	 107
  92	 109
  92	 111
  92	 112
  92	 113
  92	 114
  92	 116
  92	 118
  92	 119
  93	  95
  93	  96
  93	  97
  93	 102
  93	 103
  93	 104
  93	 106
  93	 108
  93	 111
  93	 114
  94	  98
  94	 100
  94	 101
  94	 102
  94	 104
  94	 105
  94	 106
  94	 107
  94	 113
  94	 115
  94	 118
  95	  99
  95	 100
  95	 101
  95	 104
  95	 107
  95	 111
  95	 115
  95	 116
  95	 117
  95	 119
  96	  97
  96	  99
  96	 108
  96	 109
  96	 111
  96	 114
  97	  98
  97	 101
  97	 103
  97	 104
  97	 107
  97	 108
  97	 111
  97	 112
  97	 116
  97	 118
  97	 119
  98	 100
  98	 101
  98	 104
  98	 108
  98	 109
  98	 110
  98	 112
  98	 116
  98	 117
  98	 118
  98	 119
  99	 100
  99	 102
  99	 103
  99	 104
  99	 106
  99	 108
  99	 109
  99	 111
  99	 112
  99	 114
 100	 102
 100	 110
 100	 112
 100	 115
 100	 116
 100	 118
 101	 103
 101	 104
 101	 106
 101	 107
 101	 109
 101	 110
 101	 111
 101	 113
 101	 114
 101	 115
 101	 116
 102	 107
 102	 108
 102	 112
 102	 115
 102	 117
 102	 118
 102	 119
 103	 104
 103	 108
 103	 109
 103	 110
 103	 111
 103	 114
 103	 115
 103	 117
 103	 118
 104	 106
 104	 108
 104	 110
 104	 112
 104	 114
 104	 115
 104	 116
 104	 118
 105	 106
 105	 109
 105	 115
 105	 116
 105	 118
 106	 107
 106	 109
 106	 111
 106	 114
 106	 119
 107	 109
 107	 110
 107	 112
 107	 115
 107	 117
 108	 111
 108	 116
 108	 117
 108	 119
 109	 110
 109	 111
 109	 115
 109	 116
 109	 117
 110	 111
 110	 113
 110	 117
 111	 112
 111	 115
 111	 116
 112	 114
 112	 115
 112	 117
 112	 118
 112	 119
 113	 114
 114	 115
 114	 118
 115	 117
 115	 118
 115	 119
 116	 119
 118	 119
;
